p edge 510 2504
e 1 2
e 1 3
e 1 4
e 1 5
e 1 6
e 1 7
e 1 26
e 1 27
e 1 28
e 1 29
e 1 30
e 1 31
e 1 32
e 1 33
e 1 34
e 1 35
e 1 36
e 1 37
e 1 182
e 1 183
e 1 184
e 1 185
e 1 186
e 1 187
e 1 394
e 1 395
e 1 396
e 1 397
e 1 398
e 1 399
e 1 400
e 1 401
e 1 402
e 1 403
e 1 404
e 1 405
e 2 6
e 2 7
e 2 54
e 2 80
e 2 89
e 2 96
e 2 124
e 2 131
e 2 270
e 2 296
e 2 300
e 2 323
e 2 326
e 2 347
e 2 351
e 3 5
e 3 7
e 3 58
e 3 76
e 3 90
e 3 101
e 3 125
e 3 136
e 3 278
e 3 294
e 3 308
e 3 317
e 3 320
e 3 349
e 4 5
e 4 6
e 4 56
e 4 84
e 4 95
e 4 102
e 4 130
e 4 137
e 4 274
e 4 302
e 4 306
e 4 329
e 4 332
e 4 353
e 4 360
e 4 364
e 5 53
e 5 81
e 5 87
e 5 98
e 5 123
e 5 134
e 5 232
e 5 267
e 5 291
e 5 305
e 5 317
e 5 332
e 5 348
e 5 354
e 6 57
e 6 77
e 6 92
e 6 99
e 6 128
e 6 135
e 6 275
e 6 299
e 6 303
e 6 326
e 6 329
e 6 352
e 7 55
e 7 73
e 7 86
e 7 93
e 7 122
e 7 129
e 7 271
e 7 293
e 7 297
e 7 320
e 7 323
e 7 350
e 7 370
e 8 26
e 8 237
e 8 318
e 8 321
e 8 376
e 9 32
e 9 234
e 9 319
e 9 322
e 9 377
e 10 27
e 10 239
e 10 321
e 10 324
e 10 378
e 11 37
e 11 238
e 11 322
e 11 325
e 11 379
e 12 28
e 12 243
e 12 324
e 12 327
e 12 380
e 13 36
e 13 240
e 13 325
e 13 328
e 13 381
e 14 29
e 14 245
e 14 327
e 14 330
e 14 382
e 15 35
e 15 244
e 15 328
e 15 331
e 15 383
e 16 30
e 16 249
e 16 330
e 16 333
e 16 384
e 17 34
e 17 246
e 17 331
e 17 334
e 17 385
e 18 31
e 18 233
e 18 318
e 18 333
e 18 386
e 19 33
e 19 250
e 19 319
e 19 334
e 19 387
e 20 27
e 20 33
e 20 74
e 20 75
e 20 359
e 20 388
e 21 29
e 21 37
e 21 78
e 21 79
e 21 230
e 21 389
e 22 31
e 22 35
e 22 82
e 22 83
e 22 231
e 22 368
e 22 390
e 23 26
e 23 32
e 23 268
e 23 269
e 23 363
e 23 391
e 24 28
e 24 36
e 24 272
e 24 273
e 24 309
e 24 392
e 25 30
e 25 34
e 25 276
e 25 277
e 25 310
e 25 369
e 25 393
e 26 27
e 26 31
e 26 48
e 26 83
e 26 91
e 26 126
e 26 137
e 26 165
e 26 211
e 26 269
e 26 291
e 26 318
e 26 321
e 26 349
e 26 370
e 27 28
e 27 38
e 27 56
e 27 74
e 27 94
e 27 123
e 27 201
e 27 272
e 27 294
e 27 298
e 27 321
e 27 324
e 27 336
e 28 29
e 28 40
e 28 75
e 28 97
e 28 125
e 28 132
e 28 167
e 28 203
e 28 273
e 28 297
e 28 324
e 28 327
e 28 351
e 28 374
e 29 30
e 29 42
e 29 58
e 29 78
e 29 100
e 29 129
e 29 205
e 29 232
e 29 276
e 29 300
e 29 304
e 29 327
e 29 330
e 29 338
e 30 31
e 30 44
e 30 79
e 30 85
e 30 131
e 30 138
e 30 169
e 30 207
e 30 277
e 30 303
e 30 330
e 30 333
e 30 348
e 30 353
e 31 46
e 31 54
e 31 82
e 31 88
e 31 135
e 31 209
e 31 268
e 31 292
e 31 306
e 31 318
e 31 333
e 31 340
e 31 372
e 32 33
e 32 37
e 32 43
e 32 78
e 32 85
e 32 121
e 32 128
e 32 164
e 32 204
e 32 268
e 32 296
e 32 319
e 32 322
e 32 350
e 32 365
e 33 34
e 33 41
e 33 57
e 33 75
e 33 100
e 33 124
e 33 202
e 33 277
e 33 293
e 33 307
e 33 319
e 33 334
e 33 335
e 33 360
e 34 35
e 34 39
e 34 74
e 34 97
e 34 122
e 34 133
e 34 168
e 34 200
e 34 276
e 34 308
e 34 331
e 34 334
e 34 354
e 34 364
e 35 36
e 35 49
e 35 55
e 35 83
e 35 94
e 35 136
e 35 210
e 35 273
e 35 301
e 35 305
e 35 328
e 35 331
e 35 339
e 35 356
e 36 37
e 36 47
e 36 82
e 36 91
e 36 127
e 36 134
e 36 166
e 36 208
e 36 272
e 36 302
e 36 325
e 36 328
e 36 347
e 36 352
e 37 45
e 37 53
e 37 79
e 37 88
e 37 130
e 37 206
e 37 269
e 37 295
e 37 299
e 37 322
e 37 325
e 37 337
e 38 155
e 38 156
e 38 162
e 38 167
e 38 174
e 38 178
e 38 186
e 38 190
e 38 198
e 38 201
e 38 211
e 38 212
e 38 214
e 38 359
e 39 168
e 39 175
e 39 179
e 39 191
e 39 199
e 39 200
e 39 202
e 39 213
e 39 215
e 40 167
e 40 176
e 40 180
e 40 188
e 40 192
e 40 201
e 40 203
e 40 215
e 40 217
e 41 157
e 41 158
e 41 163
e 41 168
e 41 177
e 41 181
e 41 185
e 41 189
e 41 193
e 41 202
e 41 204
e 41 216
e 41 218
e 41 358
e 42 159
e 42 160
e 42 163
e 42 169
e 42 170
e 42 178
e 42 182
e 42 190
e 42 194
e 42 203
e 42 205
e 42 218
e 42 220
e 42 375
e 43 164
e 43 171
e 43 179
e 43 191
e 43 195
e 43 204
e 43 206
e 43 219
e 43 221
e 44 169
e 44 172
e 44 180
e 44 192
e 44 196
e 44 205
e 44 207
e 44 221
e 44 223
e 45 151
e 45 152
e 45 161
e 45 164
e 45 173
e 45 181
e 45 187
e 45 193
e 45 197
e 45 206
e 45 208
e 45 222
e 45 224
e 45 230
e 46 153
e 46 161
e 46 165
e 46 170
e 46 174
e 46 184
e 46 194
e 46 198
e 46 207
e 46 209
e 46 224
e 46 226
e 46 368
e 46 373
e 47 166
e 47 171
e 47 175
e 47 195
e 47 199
e 47 208
e 47 210
e 47 225
e 47 227
e 48 165
e 48 172
e 48 176
e 48 188
e 48 196
e 48 209
e 48 211
e 48 227
e 48 229
e 49 154
e 49 162
e 49 166
e 49 173
e 49 177
e 49 183
e 49 189
e 49 197
e 49 200
e 49 210
e 49 212
e 49 228
e 49 231
e 49 367
e 50 132
e 50 133
e 50 146
e 50 147
e 50 162
e 50 163
e 50 200
e 50 203
e 50 359
e 51 121
e 51 138
e 51 139
e 51 150
e 51 161
e 51 163
e 51 204
e 51 207
e 51 230
e 52 126
e 52 127
e 52 142
e 52 143
e 52 161
e 52 162
e 52 208
e 52 211
e 52 231
e 52 368
e 53 117
e 53 130
e 53 134
e 53 212
e 53 217
e 53 234
e 53 235
e 54 116
e 54 131
e 54 135
e 54 159
e 54 213
e 54 218
e 54 236
e 54 237
e 54 373
e 55 109
e 55 122
e 55 136
e 55 158
e 55 218
e 55 223
e 55 240
e 55 241
e 55 367
e 56 120
e 56 123
e 56 137
e 56 219
e 56 224
e 56 242
e 56 243
e 57 113
e 57 124
e 57 128
e 57 152
e 57 224
e 57 229
e 57 246
e 57 247
e 57 358
e 57 360
e 58 112
e 58 125
e 58 129
e 58 155
e 58 212
e 58 225
e 58 232
e 58 248
e 58 249
e 58 375
e 59 116
e 59 119
e 59 146
e 59 149
e 59 188
e 59 193
e 59 236
e 60 111
e 60 120
e 60 141
e 60 150
e 60 192
e 60 197
e 60 242
e 61 94
e 61 95
e 61 113
e 61 117
e 61 157
e 61 173
e 61 179
e 61 202
e 61 210
e 61 234
e 61 261
e 61 360
e 62 96
e 62 97
e 62 106
e 62 114
e 62 118
e 62 159
e 62 174
e 62 180
e 62 203
e 62 211
e 62 233
e 62 251
e 62 362
e 63 97
e 63 98
e 63 107
e 63 115
e 63 119
e 63 175
e 63 181
e 63 200
e 63 204
e 63 238
e 63 252
e 63 253
e 64 99
e 64 100
e 64 116
e 64 120
e 64 156
e 64 170
e 64 176
e 64 201
e 64 205
e 64 237
e 64 262
e 65 100
e 65 101
e 65 109
e 65 117
e 65 151
e 65 171
e 65 177
e 65 202
e 65 206
e 65 240
e 65 263
e 66 85
e 66 102
e 66 108
e 66 110
e 66 118
e 66 172
e 66 178
e 66 203
e 66 207
e 66 239
e 66 254
e 66 256
e 67 85
e 67 86
e 67 103
e 67 111
e 67 119
e 67 158
e 67 173
e 67 179
e 67 204
e 67 208
e 67 244
e 67 255
e 67 257
e 68 87
e 68 88
e 68 112
e 68 120
e 68 160
e 68 174
e 68 180
e 68 205
e 68 209
e 68 232
e 68 243
e 68 264
e 69 88
e 69 89
e 69 109
e 69 113
e 69 154
e 69 175
e 69 181
e 69 206
e 69 210
e 69 246
e 69 265
e 70 90
e 70 91
e 70 104
e 70 110
e 70 114
e 70 155
e 70 170
e 70 176
e 70 207
e 70 211
e 70 245
e 70 258
e 70 259
e 71 91
e 71 92
e 71 105
e 71 111
e 71 115
e 71 152
e 71 171
e 71 177
e 71 200
e 71 208
e 71 250
e 71 260
e 71 361
e 72 93
e 72 94
e 72 112
e 72 116
e 72 153
e 72 172
e 72 178
e 72 201
e 72 209
e 72 249
e 72 266
e 73 93
e 73 96
e 73 127
e 73 134
e 73 186
e 73 190
e 73 235
e 73 251
e 73 266
e 73 267
e 74 94
e 74 97
e 74 105
e 74 128
e 74 135
e 74 191
e 74 198
e 74 237
e 74 250
e 74 252
e 74 268
e 75 97
e 75 100
e 75 108
e 75 130
e 75 137
e 75 188
e 75 193
e 75 234
e 75 239
e 75 269
e 75 362
e 76 98
e 76 101
e 76 131
e 76 138
e 76 185
e 76 189
e 76 236
e 76 253
e 76 263
e 76 270
e 77 99
e 77 102
e 77 122
e 77 133
e 77 182
e 77 194
e 77 241
e 77 254
e 77 262
e 77 271
e 78 85
e 78 100
e 78 107
e 78 123
e 78 134
e 78 190
e 78 195
e 78 238
e 78 243
e 78 255
e 78 272
e 79 85
e 79 88
e 79 104
e 79 125
e 79 136
e 79 192
e 79 197
e 79 240
e 79 245
e 79 256
e 79 273
e 80 86
e 80 89
e 80 126
e 80 137
e 80 187
e 80 193
e 80 242
e 80 257
e 80 265
e 80 274
e 81 87
e 81 90
e 81 121
e 81 128
e 81 184
e 81 198
e 81 247
e 81 258
e 81 264
e 81 275
e 82 88
e 82 91
e 82 103
e 82 122
e 82 129
e 82 194
e 82 199
e 82 244
e 82 249
e 82 276
e 82 361
e 83 91
e 83 94
e 83 106
e 83 124
e 83 131
e 83 189
e 83 196
e 83 233
e 83 246
e 83 259
e 83 277
e 84 92
e 84 95
e 84 125
e 84 132
e 84 183
e 84 197
e 84 248
e 84 260
e 84 261
e 84 278
e 85 91
e 85 97
e 85 125
e 85 134
e 85 172
e 85 179
e 85 215
e 85 227
e 85 234
e 85 249
e 85 251
e 85 260
e 85 268
e 85 277
e 85 279
e 85 290
e 85 291
e 85 308
e 86 92
e 86 98
e 86 126
e 86 135
e 86 158
e 86 173
e 86 187
e 86 216
e 86 228
e 86 236
e 86 252
e 86 278
e 86 291
e 86 292
e 87 93
e 87 99
e 87 128
e 87 180
e 87 217
e 87 229
e 87 267
e 87 293
e 88 94
e 88 100
e 88 129
e 88 136
e 88 154
e 88 160
e 88 174
e 88 181
e 88 212
e 88 218
e 88 233
e 88 238
e 88 268
e 88 269
e 88 280
e 88 281
e 88 293
e 88 294
e 89 95
e 89 101
e 89 137
e 89 175
e 89 213
e 89 219
e 89 270
e 89 294
e 90 96
e 90 102
e 90 121
e 90 130
e 90 155
e 90 170
e 90 184
e 90 214
e 90 220
e 90 235
e 90 271
e 90 295
e 90 296
e 90 362
e 91 97
e 91 122
e 91 131
e 91 171
e 91 176
e 91 215
e 91 221
e 91 237
e 91 240
e 91 253
e 91 254
e 91 269
e 91 272
e 91 282
e 91 283
e 91 296
e 91 297
e 92 98
e 92 123
e 92 132
e 92 152
e 92 177
e 92 183
e 92 216
e 92 222
e 92 242
e 92 255
e 92 270
e 92 297
e 92 298
e 93 99
e 93 134
e 93 172
e 93 217
e 93 223
e 93 271
e 93 299
e 94 100
e 94 124
e 94 135
e 94 153
e 94 157
e 94 173
e 94 178
e 94 218
e 94 224
e 94 239
e 94 244
e 94 272
e 94 273
e 94 284
e 94 285
e 94 299
e 94 300
e 95 101
e 95 125
e 95 179
e 95 219
e 95 225
e 95 274
e 95 300
e 96 102
e 96 127
e 96 136
e 96 159
e 96 174
e 96 186
e 96 220
e 96 226
e 96 241
e 96 256
e 96 275
e 96 301
e 96 302
e 97 128
e 97 137
e 97 175
e 97 180
e 97 221
e 97 227
e 97 243
e 97 246
e 97 257
e 97 258
e 97 273
e 97 276
e 97 286
e 97 287
e 97 302
e 97 303
e 98 129
e 98 138
e 98 181
e 98 185
e 98 222
e 98 228
e 98 248
e 98 274
e 98 303
e 98 304
e 98 361
e 99 122
e 99 176
e 99 223
e 99 229
e 99 275
e 99 305
e 100 123
e 100 130
e 100 151
e 100 156
e 100 170
e 100 177
e 100 212
e 100 224
e 100 245
e 100 250
e 100 276
e 100 277
e 100 288
e 100 289
e 100 305
e 100 306
e 101 131
e 101 171
e 101 213
e 101 225
e 101 278
e 101 306
e 102 124
e 102 133
e 102 178
e 102 182
e 102 214
e 102 226
e 102 247
e 102 259
e 102 267
e 102 307
e 102 308
e 103 119
e 103 143
e 103 166
e 103 199
e 103 231
e 103 253
e 103 279
e 103 292
e 104 114
e 104 150
e 104 169
e 104 192
e 104 251
e 104 282
e 104 295
e 105 111
e 105 147
e 105 168
e 105 191
e 105 257
e 105 283
e 105 298
e 106 118
e 106 142
e 106 165
e 106 196
e 106 254
e 106 286
e 106 301
e 106 368
e 107 115
e 107 139
e 107 164
e 107 195
e 107 230
e 107 260
e 107 287
e 107 304
e 108 110
e 108 146
e 108 167
e 108 188
e 108 258
e 108 290
e 108 307
e 108 359
e 109 148
e 109 158
e 109 202
e 109 210
e 109 277
e 109 280
e 109 311
e 109 357
e 109 367
e 110 143
e 110 160
e 110 203
e 110 211
e 110 267
e 110 269
e 110 279
e 110 363
e 111 150
e 111 154
e 111 200
e 111 204
e 111 268
e 111 270
e 111 282
e 111 372
e 112 145
e 112 155
e 112 201
e 112 205
e 112 272
e 112 281
e 112 312
e 112 375
e 113 140
e 113 152
e 113 202
e 113 206
e 113 269
e 113 284
e 113 313
e 113 358
e 114 147
e 114 153
e 114 203
e 114 207
e 114 271
e 114 273
e 114 283
e 114 356
e 114 366
e 115 142
e 115 157
e 115 204
e 115 208
e 115 272
e 115 274
e 115 286
e 115 309
e 116 149
e 116 159
e 116 205
e 116 209
e 116 276
e 116 285
e 116 314
e 116 373
e 117 144
e 117 206
e 117 210
e 117 273
e 117 288
e 117 315
e 117 366
e 118 139
e 118 156
e 118 207
e 118 211
e 118 275
e 118 277
e 118 287
e 118 357
e 118 369
e 119 146
e 119 151
e 119 200
e 119 208
e 119 276
e 119 278
e 119 290
e 119 310
e 120 141
e 120 201
e 120 209
e 120 268
e 120 289
e 120 316
e 121 186
e 121 235
e 121 307
e 121 316
e 121 317
e 121 363
e 122 237
e 122 293
e 122 308
e 122 318
e 123 250
e 123 291
e 123 294
e 123 319
e 124 239
e 124 293
e 124 296
e 124 321
e 125 234
e 125 294
e 125 297
e 125 322
e 126 185
e 126 236
e 126 298
e 126 313
e 126 323
e 126 372
e 127 182
e 127 241
e 127 295
e 127 312
e 127 323
e 127 356
e 128 243
e 128 296
e 128 299
e 128 324
e 129 238
e 129 297
e 129 300
e 129 325
e 130 245
e 130 299
e 130 302
e 130 327
e 131 240
e 131 300
e 131 303
e 131 328
e 132 187
e 132 242
e 132 304
e 132 309
e 132 315
e 132 329
e 133 184
e 133 247
e 133 301
e 133 314
e 133 329
e 133 369
e 134 249
e 134 302
e 134 305
e 134 330
e 135 244
e 135 303
e 135 306
e 135 331
e 136 233
e 136 305
e 136 308
e 136 333
e 137 246
e 137 291
e 137 306
e 137 334
e 138 183
e 138 248
e 138 292
e 138 310
e 138 311
e 138 317
e 139 142
e 139 163
e 139 190
e 139 216
e 139 311
e 139 357
e 140 149
e 140 199
e 140 229
e 141 144
e 141 192
e 141 219
e 142 162
e 142 189
e 142 214
e 142 312
e 143 146
e 143 161
e 143 194
e 143 222
e 143 313
e 144 191
e 144 217
e 144 366
e 145 148
e 145 196
e 145 225
e 146 163
e 146 193
e 146 220
e 146 314
e 147 150
e 147 162
e 147 198
e 147 228
e 147 315
e 147 366
e 148 195
e 148 223
e 148 357
e 149 188
e 149 213
e 150 161
e 150 197
e 150 226
e 150 316
e 151 173
e 151 278
e 151 311
e 151 335
e 151 341
e 152 181
e 152 261
e 152 269
e 152 335
e 153 170
e 153 271
e 153 312
e 153 336
e 153 342
e 153 356
e 153 373
e 154 177
e 154 270
e 154 313
e 154 337
e 154 343
e 154 367
e 154 372
e 155 178
e 155 264
e 155 272
e 155 338
e 156 174
e 156 275
e 156 314
e 156 338
e 156 344
e 157 181
e 157 274
e 157 315
e 157 339
e 157 345
e 157 358
e 157 360
e 158 177
e 158 231
e 158 265
e 158 277
e 158 339
e 159 170
e 159 266
e 159 276
e 159 340
e 159 368
e 160 178
e 160 232
e 160 267
e 160 316
e 160 340
e 160 346
e 160 375
e 161 292
e 161 295
e 161 363
e 162 298
e 162 301
e 162 309
e 163 304
e 163 307
e 163 310
e 163 369
e 164 187
e 164 252
e 164 260
e 164 341
e 165 184
e 165 254
e 165 342
e 165 362
e 166 183
e 166 253
e 166 255
e 166 343
e 167 186
e 167 256
e 167 258
e 167 344
e 168 185
e 168 257
e 168 345
e 168 361
e 169 182
e 169 251
e 169 259
e 169 346
e 170 190
e 170 198
e 170 237
e 170 316
e 170 362
e 171 191
e 171 199
e 171 250
e 171 253
e 171 341
e 172 188
e 172 192
e 172 239
e 172 251
e 172 342
e 172 370
e 173 189
e 173 193
e 173 234
e 173 252
e 173 313
e 174 190
e 174 194
e 174 243
e 174 256
e 174 312
e 175 191
e 175 195
e 175 238
e 175 257
e 175 343
e 175 347
e 176 192
e 176 196
e 176 245
e 176 254
e 176 344
e 177 193
e 177 197
e 177 240
e 177 255
e 177 315
e 178 194
e 178 198
e 178 249
e 178 259
e 178 314
e 179 195
e 179 199
e 179 244
e 179 260
e 179 345
e 179 364
e 180 188
e 180 196
e 180 233
e 180 258
e 180 346
e 180 348
e 181 189
e 181 197
e 181 246
e 181 311
e 181 361
e 182 203
e 182 267
e 182 295
e 182 336
e 182 356
e 182 365
e 183 200
e 183 270
e 183 292
e 183 335
e 184 207
e 184 271
e 184 301
e 184 338
e 185 204
e 185 274
e 185 298
e 185 337
e 185 372
e 185 374
e 186 211
e 186 275
e 186 307
e 186 340
e 187 208
e 187 278
e 187 304
e 187 339
e 188 290
e 188 349
e 188 362
e 189 231
e 189 253
e 189 281
e 189 311
e 190 251
e 190 280
e 190 312
e 190 357
e 190 365
e 191 252
e 191 283
e 191 350
e 191 366
e 192 256
e 192 282
e 192 351
e 193 257
e 193 285
e 193 313
e 193 374
e 194 254
e 194 284
e 194 314
e 194 368
e 195 255
e 195 287
e 195 352
e 195 357
e 196 259
e 196 286
e 196 353
e 196 355
e 197 230
e 197 260
e 197 289
e 197 315
e 198 258
e 198 288
e 198 316
e 198 359
e 198 366
e 199 279
e 199 354
e 199 361
e 199 371
e 200 215
e 200 228
e 200 252
e 200 260
e 200 310
e 200 335
e 200 371
e 201 212
e 201 217
e 201 336
e 202 213
e 202 218
e 202 335
e 203 215
e 203 220
e 203 254
e 203 336
e 203 362
e 204 216
e 204 221
e 204 253
e 204 255
e 204 337
e 205 218
e 205 223
e 205 338
e 206 219
e 206 224
e 206 337
e 207 221
e 207 226
e 207 256
e 207 258
e 207 338
e 207 355
e 207 369
e 208 222
e 208 227
e 208 257
e 208 309
e 208 339
e 208 361
e 209 224
e 209 229
e 209 340
e 210 212
e 210 225
e 210 339
e 211 214
e 211 227
e 211 251
e 211 259
e 211 340
e 211 363
e 212 234
e 212 249
e 212 280
e 212 289
e 213 236
e 213 334
e 213 349
e 214 321
e 214 365
e 215 233
e 215 238
e 215 279
e 215 282
e 215 349
e 215 350
e 216 319
e 217 235
e 217 324
e 217 350
e 218 237
e 218 240
e 218 281
e 218 284
e 219 242
e 219 322
e 219 351
e 220 327
e 221 239
e 221 244
e 221 283
e 221 286
e 221 351
e 221 352
e 222 325
e 222 374
e 223 241
e 223 330
e 223 352
e 224 243
e 224 246
e 224 285
e 224 288
e 225 248
e 225 328
e 225 353
e 226 333
e 226 356
e 227 245
e 227 250
e 227 287
e 227 290
e 227 353
e 227 354
e 228 331
e 228 372
e 229 247
e 229 318
e 229 354
e 230 304
e 231 292
e 232 264
e 232 289
e 232 348
e 233 277
e 233 293
e 233 346
e 233 349
e 234 261
e 234 269
e 234 291
e 235 267
e 235 295
e 235 350
e 235 366
e 236 270
e 236 292
e 236 349
e 237 262
e 237 268
e 237 296
e 238 272
e 238 294
e 238 343
e 238 350
e 239 269
e 239 299
e 239 342
e 239 351
e 240 263
e 240 273
e 240 297
e 241 271
e 241 301
e 241 352
e 241 357
e 242 274
e 242 298
e 242 351
e 243 264
e 243 272
e 243 302
e 244 276
e 244 300
e 244 345
e 244 352
e 245 273
e 245 305
e 245 344
e 245 353
e 246 265
e 246 277
e 246 303
e 247 275
e 247 307
e 247 354
e 248 278
e 248 304
e 248 353
e 249 266
e 249 276
e 249 308
e 250 268
e 250 306
e 250 341
e 250 354
e 251 266
e 251 365
e 251 370
e 252 341
e 252 350
e 253 263
e 254 262
e 255 309
e 255 343
e 255 352
e 256 344
e 256 351
e 257 265
e 257 347
e 257 374
e 258 264
e 258 348
e 258 355
e 259 346
e 259 353
e 259 369
e 260 261
e 260 364
e 260 371
e 261 335
e 261 360
e 262 336
e 262 373
e 263 337
e 263 367
e 264 338
e 265 339
e 265 358
e 266 340
e 266 375
e 267 293
e 267 307
e 267 346
e 268 294
e 268 308
e 268 316
e 269 293
e 269 297
e 269 313
e 270 294
e 270 298
e 270 343
e 271 295
e 271 299
e 271 342
e 272 296
e 272 300
e 272 312
e 273 299
e 273 303
e 273 315
e 274 300
e 274 304
e 274 345
e 275 301
e 275 305
e 275 344
e 276 302
e 276 306
e 276 314
e 277 291
e 277 305
e 277 311
e 278 292
e 278 306
e 278 341
e 279 290
e 279 371
e 280 281
e 280 311
e 280 367
e 281 312
e 281 375
e 282 283
e 282 370
e 283 347
e 284 285
e 284 313
e 284 358
e 285 314
e 285 373
e 286 287
e 286 355
e 287 364
e 288 289
e 288 315
e 288 360
e 289 316
e 290 348
e 291 319
e 291 349
e 292 320
e 293 318
e 293 350
e 294 322
e 294 349
e 295 320
e 295 365
e 296 321
e 296 350
e 297 325
e 297 351
e 298 326
e 298 374
e 299 324
e 299 352
e 300 328
e 300 351
e 301 326
e 301 368
e 302 327
e 302 352
e 303 331
e 303 353
e 304 332
e 305 330
e 305 354
e 306 334
e 306 353
e 307 332
e 307 359
e 308 333
e 308 354
e 309 315
e 310 311
e 310 361
e 311 335
e 312 336
e 313 337
e 314 338
e 314 369
e 315 339
e 316 340
e 316 363
e 318 334
e 319 321
e 322 324
e 325 327
e 328 330
e 331 333
e 341 371
e 342 362
e 342 370
e 343 347
e 344 355
e 345 361
e 345 364
e 346 348
e 347 352
e 348 353
e 349 362
e 349 370
e 353 355
e 354 361
e 354 364
e 354 371
e 360 364
e 362 363
e 376 394
e 376 417
e 376 427
e 376 428
e 376 433
e 376 457
e 377 400
e 377 418
e 377 422
e 377 423
e 377 438
e 377 456
e 377 494
e 378 395
e 378 432
e 378 433
e 378 437
e 378 462
e 378 474
e 378 500
e 379 405
e 379 422
e 379 447
e 379 448
e 379 461
e 379 477
e 380 396
e 380 414
e 380 425
e 380 437
e 380 440
e 380 478
e 381 404
e 381 420
e 381 442
e 381 445
e 381 447
e 381 480
e 381 488
e 382 397
e 382 424
e 382 425
e 382 450
e 382 464
e 382 468
e 382 481
e 383 403
e 383 419
e 383 429
e 383 430
e 383 445
e 383 467
e 384 398
e 384 416
e 384 444
e 384 449
e 384 450
e 384 479
e 385 402
e 385 413
e 385 429
e 385 434
e 385 435
e 385 475
e 385 486
e 386 399
e 386 428
e 386 443
e 386 444
e 386 454
e 386 484
e 386 496
e 386 509
e 387 401
e 387 415
e 387 434
e 387 438
e 387 439
e 387 453
e 388 394
e 388 400
e 388 408
e 388 409
e 388 453
e 388 462
e 388 476
e 388 510
e 389 396
e 389 404
e 389 407
e 389 412
e 389 461
e 389 468
e 389 485
e 389 504
e 390 398
e 390 402
e 390 410
e 390 411
e 390 454
e 390 467
e 390 497
e 390 509
e 391 395
e 391 401
e 391 417
e 391 418
e 391 431
e 391 436
e 391 476
e 391 510
e 392 397
e 392 405
e 392 414
e 392 420
e 392 421
e 392 446
e 392 485
e 392 504
e 393 399
e 393 403
e 393 413
e 393 416
e 393 426
e 393 441
e 393 497
e 394 395
e 394 399
e 394 406
e 394 408
e 394 426
e 394 428
e 394 433
e 394 459
e 394 469
e 394 476
e 394 501
e 395 396
e 395 407
e 395 431
e 395 433
e 395 437
e 395 451
e 395 482
e 395 493
e 395 506
e 395 510
e 396 397
e 396 412
e 396 425
e 396 436
e 396 437
e 396 455
e 396 483
e 396 485
e 396 492
e 396 505
e 397 398
e 397 411
e 397 421
e 397 425
e 397 450
e 397 458
e 397 472
e 397 499
e 397 504
e 398 399
e 398 410
e 398 444
e 398 446
e 398 450
e 398 463
e 398 495
e 398 497
e 399 409
e 399 428
e 399 441
e 399 444
e 399 465
e 399 487
e 399 498
e 400 401
e 400 405
e 400 409
e 400 421
e 400 422
e 400 438
e 400 452
e 400 463
e 400 483
e 400 510
e 401 402
e 401 410
e 401 434
e 401 436
e 401 438
e 401 458
e 401 470
e 401 476
e 401 498
e 402 403
e 402 406
e 402 411
e 402 429
e 402 431
e 402 434
e 402 455
e 402 466
e 402 503
e 402 507
e 403 404
e 403 412
e 403 426
e 403 429
e 403 445
e 403 451
e 403 473
e 403 497
e 403 499
e 403 502
e 404 405
e 404 407
e 404 441
e 404 445
e 404 447
e 404 460
e 404 469
e 404 495
e 404 504
e 404 508
e 405 408
e 405 422
e 405 446
e 405 447
e 405 465
e 405 471
e 405 482
e 405 485
e 406 415
e 406 426
e 406 431
e 406 476
e 406 484
e 406 496
e 407 421
e 407 440
e 407 448
e 407 451
e 407 452
e 407 461
e 407 469
e 407 478
e 407 482
e 407 500
e 408 423
e 408 432
e 408 436
e 408 456
e 408 462
e 408 465
e 408 469
e 408 482
e 408 492
e 409 427
e 409 431
e 409 439
e 409 453
e 409 457
e 409 463
e 409 465
e 409 466
e 409 496
e 409 498
e 409 506
e 410 426
e 410 435
e 410 443
e 410 454
e 410 458
e 410 459
e 410 463
e 410 475
e 410 498
e 410 502
e 411 430
e 411 441
e 411 449
e 411 455
e 411 458
e 411 460
e 411 464
e 411 467
e 411 479
e 411 499
e 412 424
e 412 442
e 412 446
e 412 451
e 412 455
e 412 468
e 412 480
e 412 499
e 413 426
e 413 428
e 413 475
e 413 503
e 414 421
e 414 422
e 414 478
e 414 494
e 415 431
e 415 433
e 415 453
e 415 470
e 416 441
e 416 445
e 416 479
e 416 488
e 417 431
e 417 434
e 417 457
e 417 486
e 418 436
e 418 437
e 418 456
e 419 441
e 419 444
e 419 467
e 419 473
e 419 495
e 419 509
e 420 446
e 420 450
e 420 480
e 420 508
e 421 440
e 421 448
e 421 458
e 421 463
e 421 477
e 421 483
e 421 493
e 421 494
e 421 508
e 422 437
e 422 462
e 422 506
e 423 436
e 423 459
e 423 463
e 423 494
e 424 446
e 424 458
e 424 464
e 424 471
e 424 490
e 424 502
e 425 447
e 425 460
e 425 471
e 425 477
e 425 480
e 426 435
e 426 443
e 426 451
e 426 469
e 426 470
e 426 484
e 427 431
e 427 452
e 427 469
e 427 503
e 428 434
e 428 453
e 428 503
e 429 444
e 429 479
e 429 484
e 429 487
e 430 441
e 430 451
e 430 487
e 430 489
e 431 439
e 431 451
e 431 455
e 431 486
e 431 487
e 432 436
e 432 451
e 432 470
e 432 489
e 432 500
e 432 505
e 433 438
e 433 452
e 433 456
e 433 470
e 434 454
e 435 455
e 435 486
e 436 455
e 436 458
e 436 471
e 436 474
e 436 483
e 437 461
e 438 457
e 438 459
e 438 474
e 438 493
e 439 458
e 439 490
e 439 493
e 439 507
e 440 455
e 440 460
e 441 449
e 441 465
e 441 469
e 441 472
e 441 488
e 441 495
e 441 503
e 441 509
e 442 446
e 442 469
e 442 488
e 442 492
e 443 465
e 443 473
e 443 491
e 443 496
e 443 501
e 443 509
e 444 466
e 444 473
e 444 475
e 445 450
e 445 468
e 446 463
e 446 465
e 446 473
e 446 481
e 446 495
e 447 472
e 447 478
e 447 481
e 447 492
e 448 465
e 448 472
e 448 491
e 448 506
e 449 463
e 449 466
e 449 508
e 450 467
e 450 502
e 450 508
e 451 458
e 451 465
e 451 470
e 451 487
e 452 456
e 452 469
e 452 470
e 452 500
e 453 496
e 454 484
e 455 460
e 455 463
e 455 469
e 455 489
e 455 490
e 456 482
e 457 459
e 457 498
e 458 465
e 458 471
e 458 493
e 458 502
e 459 463
e 459 493
e 459 501
e 460 464
e 460 471
e 460 480
e 460 508
e 461 477
e 461 500
e 462 474
e 462 506
e 463 466
e 463 469
e 463 490
e 463 491
e 463 508
e 464 467
e 464 495
e 465 472
e 465 473
e 465 506
e 466 473
e 466 475
e 466 496
e 466 503
e 466 507
e 467 502
e 468 481
e 469 489
e 469 491
e 469 492
e 469 503
e 471 477
e 472 481
e 472 488
e 472 492
e 473 502
e 474 483
e 474 493
e 475 498
e 476 498
e 477 483
e 478 482
e 478 492
e 479 499
e 480 499
e 481 495
e 482 485
e 482 494
e 482 510
e 483 485
e 483 500
e 483 510
e 484 487
e 486 487
e 486 498
e 488 499
e 489 505
e 490 507
e 491 501
e 492 505
e 493 494
e 493 506
e 495 497
e 495 504
e 496 501
e 497 499
e 499 504
e 500 505
e 501 506
e 502 507
e 502 508
e 503 509
